100
100
3000 3000 3000 3000 3000 3000 3000 3000 3000 3000 3000 3000 3000 3000 3000 3000 3000 3000 3000 3000 3000 3000 3000 3000 3000 3000 3000 3000 3000 3000 3000 3000 3000 3000 3000 3000 3000 3000 3000 3000 3000 3000 3000 3000 3000 3000 3000 3000 3000 3000 3000 3000 3000 3000 3000 3000 3000 3000 3000 3000 3000 3000 3000 3000 3000 3000 3000 3000 3000 3000 3000 3000 3000 3000 3000 3000 3000 3000 3000 3000 3000 3000 3000 3000 3000 3000 3000 3000 3000 3000 3000 3000 3000 3000 3000 3000 3000 3000 3000 3000
0 1 3
0 10 3
0 21 1
0 23 0
0 30 2
0 33 2
0 48 2
0 59 2
0 78 0
0 91 4
1 27 2
1 30 0
1 35 3
1 37 0
1 65 0
1 67 3
1 74 1
1 76 0
1 85 1
1 87 2
2 13 0
2 16 1
2 25 3
2 61 3
2 68 1
2 80 2
2 85 0
2 87 2
2 89 3
2 92 1
3 9 4
3 12 1
3 15 1
3 40 4
3 53 2
3 60 1
3 64 0
3 69 4
3 82 4
3 87 2
4 5 1
4 9 0
4 34 0
4 39 2
4 47 1
4 83 2
4 86 3
4 87 0
4 93 0
4 94 0
5 7 3
5 25 0
5 30 0
5 38 2
5 42 4
5 44 4
5 45 1
5 57 0
5 61 2
5 70 3
6 26 2
6 27 2
6 33 2
6 42 3
6 47 2
6 58 0
6 69 2
6 73 4
6 75 2
6 76 1
7 14 1
7 18 2
7 20 1
7 22 0
7 23 0
7 43 4
7 44 1
7 48 3
7 53 3
7 56 0
8 1 4
8 11 4
8 16 0
8 65 3
8 78 4
8 80 2
8 90 0
8 96 2
8 98 2
8 99 2
9 6 1
9 32 0
9 40 4
9 54 3
9 61 4
9 62 0
9 68 1
9 86 2
9 87 4
9 88 1
10 0 2
10 3 3
10 8 3
10 15 0
10 22 1
10 26 2
10 43 2
10 65 2
10 74 1
10 82 4
11 1 0
11 3 3
11 7 2
11 14 2
11 28 4
11 34 2
11 40 2
11 79 4
11 81 0
11 97 4
12 3 0
12 24 0
12 35 0
12 55 0
12 65 3
12 77 2
12 85 2
12 88 3
12 91 0
12 93 3
13 5 0
13 25 1
13 36 1
13 47 1
13 50 0
13 59 0
13 61 2
13 63 1
13 71 3
13 88 1
14 3 1
14 12 3
14 13 4
14 21 4
14 34 0
14 37 1
14 41 3
14 52 2
14 69 1
14 71 2
15 11 4
15 20 1
15 33 4
15 42 3
15 44 1
15 57 1
15 58 2
15 79 4
15 82 4
15 87 4
16 25 2
16 36 3
16 50 3
16 52 3
16 57 3
16 62 4
16 64 3
16 65 2
16 69 1
16 70 1
17 0 3
17 19 4
17 24 4
17 40 4
17 70 2
17 71 4
17 74 1
17 75 3
17 85 4
17 94 2
18 10 1
18 24 2
18 34 4
18 49 2
18 58 4
18 60 3
18 81 3
18 87 1
18 97 3
18 98 2
19 23 4
19 58 2
19 60 3
19 77 4
19 78 3
19 86 0
19 95 0
19 97 2
19 98 4
19 99 0
20 0 1
20 8 2
20 9 3
20 28 0
20 35 4
20 39 1
20 58 3
20 80 3
20 81 3
20 82 2
21 26 0
21 31 3
21 38 1
21 42 3
21 47 3
21 62 1
21 66 0
21 69 3
21 80 1
21 84 3
22 1 0
22 23 2
22 38 0
22 53 4
22 58 3
22 59 0
22 63 4
22 82 0
22 96 2
22 99 2
23 2 3
23 17 3
23 18 3
23 46 1
23 48 0
23 72 0
23 75 0
23 81 2
23 82 1
23 86 0
24 12 3
24 14 0
24 24 0
24 27 3
24 34 2
24 35 2
24 36 4
24 46 4
24 53 4
24 68 3
25 3 4
25 6 4
25 12 3
25 17 4
25 22 4
25 29 3
25 38 2
25 49 1
25 62 3
25 71 4
26 27 2
26 30 1
26 42 2
26 44 3
26 47 4
26 49 0
26 54 2
26 59 3
26 66 1
26 68 3
27 2 4
27 7 3
27 9 3
27 18 4
27 24 3
27 26 1
27 31 3
27 38 2
27 39 2
27 41 1
28 24 3
28 34 4
28 35 2
28 40 0
28 41 0
28 45 2
28 70 1
28 71 2
28 73 3
28 74 4
29 4 1
29 14 0
29 19 4
29 20 1
29 33 0
29 51 3
29 84 0
29 95 0
29 96 1
29 97 1
30 5 2
30 13 2
30 14 2
30 17 0
30 21 0
30 22 0
30 26 4
30 41 0
30 56 0
30 64 3
31 6 0
31 15 1
31 25 1
31 40 3
31 46 4
31 49 2
31 60 3
31 70 4
31 72 0
31 76 4
32 25 3
32 49 4
32 52 1
32 76 1
32 77 2
32 78 3
32 79 3
32 84 3
32 88 1
32 94 0
33 2 0
33 6 4
33 7 2
33 8 1
33 15 3
33 18 4
33 31 2
33 39 2
33 42 1
33 52 1
34 11 2
34 12 1
34 15 1
34 16 4
34 21 2
34 22 0
34 28 0
34 33 2
34 41 1
34 45 0
35 1 1
35 4 4
35 57 3
35 62 4
35 77 4
35 78 3
35 82 1
35 86 3
35 88 4
35 92 3
36 0 1
36 3 4
36 5 3
36 7 1
36 20 4
36 28 1
36 38 4
36 44 2
36 67 4
36 73 0
37 6 2
37 18 4
37 20 3
37 36 3
37 41 4
37 51 2
37 53 4
37 55 1
37 80 0
37 84 4
38 5 0
38 12 3
38 32 0
38 40 1
38 52 2
38 55 3
38 64 4
38 65 3
38 71 0
38 83 1
39 10 3
39 19 1
39 43 0
39 52 1
39 53 0
39 56 4
39 59 0
39 89 4
39 92 4
39 93 3
40 4 3
40 12 0
40 18 2
40 44 1
40 49 4
40 65 0
40 79 0
40 83 1
40 88 1
40 92 2
41 21 0
41 35 3
41 37 0
41 40 2
41 42 1
41 43 2
41 55 2
41 66 3
41 67 1
41 75 0
42 8 1
42 10 2
42 13 3
42 19 1
42 25 0
42 35 4
42 36 0
42 55 1
42 63 4
42 72 1
43 8 2
43 22 0
43 31 4
43 43 2
43 50 1
43 73 4
43 90 0
43 94 2
43 98 1
43 99 1
44 4 3
44 17 2
44 36 2
44 38 3
44 62 2
44 66 0
44 73 1
44 74 3
44 76 3
44 80 0
45 10 2
45 27 3
45 44 3
45 56 0
45 60 4
45 83 3
45 90 2
45 97 4
45 98 2
45 99 1
46 9 4
46 24 4
46 34 3
46 67 2
46 70 2
46 74 3
46 78 2
46 79 2
46 81 0
46 88 1
47 12 2
47 31 2
47 48 3
47 54 0
47 63 2
47 67 1
47 93 4
47 96 3
47 98 4
47 99 3
48 12 4
48 43 2
48 77 3
48 80 3
48 83 0
48 84 2
48 91 4
48 93 0
48 95 4
48 96 2
49 11 0
49 16 1
49 20 0
49 24 3
49 31 4
49 49 4
49 92 1
49 97 1
49 98 1
49 99 4
50 15 4
50 16 1
50 45 0
50 63 0
50 64 2
50 65 4
50 72 3
50 73 3
50 93 1
50 95 3
51 2 4
51 8 1
51 10 3
51 14 3
51 18 2
51 27 3
51 29 1
51 66 2
51 81 4
51 91 3
52 6 0
52 8 0
52 23 1
52 31 1
52 43 0
52 50 0
52 54 3
52 68 1
52 72 1
52 79 0
53 10 3
53 18 2
53 25 1
53 28 4
53 45 2
53 48 0
53 81 4
53 89 0
53 91 4
53 92 0
54 25 0
54 42 3
54 56 4
54 57 4
54 63 4
54 72 0
54 82 0
54 84 0
54 86 3
54 93 1
55 0 0
55 2 0
55 3 2
55 7 2
55 11 2
55 19 4
55 20 0
55 24 3
55 27 2
55 39 4
56 4 2
56 12 2
56 17 4
56 21 0
56 37 2
56 60 0
56 69 1
56 71 0
56 78 4
56 98 4
57 0 4
57 4 2
57 6 0
57 26 4
57 47 0
57 53 0
57 70 3
57 75 1
57 76 1
57 86 1
58 1 4
58 10 3
58 29 3
58 32 1
58 40 4
58 67 3
58 79 0
58 84 3
58 88 4
58 90 0
59 2 1
59 5 0
59 9 2
59 21 0
59 30 3
59 35 4
59 64 1
59 70 0
59 74 4
59 76 1
60 14 3
60 15 0
60 46 3
60 48 3
60 49 2
60 50 0
60 56 1
60 69 4
60 80 3
60 85 1
61 3 3
61 11 3
61 35 3
61 39 2
61 44 3
61 48 4
61 60 0
61 66 0
61 78 4
61 83 1
62 6 3
62 22 3
62 33 1
62 34 0
62 37 4
62 55 2
62 59 0
62 76 2
62 79 3
62 89 0
63 1 1
63 14 4
63 23 2
63 27 1
63 39 0
63 45 2
63 50 3
63 54 4
63 57 0
63 72 3
64 6 0
64 7 1
64 11 1
64 22 1
64 32 2
64 38 2
64 58 1
64 61 2
64 68 2
64 75 3
65 10 3
65 47 1
65 70 1
65 73 2
65 86 4
65 91 3
65 93 4
65 97 2
65 98 4
65 99 3
66 6 3
66 24 4
66 28 2
66 34 0
66 37 0
66 43 3
66 51 0
66 56 0
66 61 1
66 71 3
67 9 4
67 30 3
67 32 1
67 33 0
67 41 3
67 46 3
67 59 4
67 89 1
67 90 2
67 91 1
68 5 3
68 14 0
68 23 3
68 54 4
68 56 0
68 57 1
68 62 3
68 67 4
68 76 1
68 77 2
69 5 2
69 13 3
69 16 0
69 28 0
69 33 2
69 39 1
69 52 1
69 62 0
69 89 4
69 90 0
70 4 3
70 13 3
70 33 3
70 34 0
70 37 3
70 46 4
70 52 3
70 60 2
70 66 2
70 68 1
71 1 4
71 16 1
71 30 4
71 39 1
71 51 2
71 64 2
71 77 4
71 81 3
71 85 1
71 87 1
72 2 3
72 7 4
72 20 3
72 26 1
72 32 2
72 55 0
72 57 2
72 72 3
72 77 4
72 85 0
73 18 1
73 28 3
73 45 4
73 59 4
73 60 0
73 62 1
73 85 3
73 89 3
73 93 2
73 94 1
74 26 0
74 41 2
74 54 4
74 62 2
74 72 1
74 80 2
74 87 3
74 91 3
74 96 3
74 97 0
75 13 1
75 16 3
75 21 2
75 28 0
75 29 0
75 36 1
75 37 0
75 54 1
75 58 1
75 69 0
76 0 0
76 7 2
76 21 0
76 27 4
76 44 1
76 51 3
76 69 3
76 86 4
76 90 3
76 95 2
77 1 3
77 2 1
77 3 1
77 5 3
77 19 1
77 23 3
77 29 2
77 51 4
77 59 4
77 64 2
78 9 2
78 21 2
78 38 2
78 49 1
78 50 1
78 61 1
78 64 4
78 75 2
78 84 1
78 85 2
79 11 2
79 29 2
79 32 1
79 33 3
79 47 0
79 49 0
79 51 3
79 61 1
79 67 2
79 71 4
80 2 0
80 3 1
80 15 1
80 22 4
80 29 2
80 40 3
80 43 3
80 82 4
80 84 4
80 95 0
81 4 4
81 8 2
81 9 0
81 13 3
81 23 2
81 35 3
81 38 1
81 42 4
81 45 3
81 50 4
82 1 4
82 7 2
82 29 2
82 36 3
82 53 1
82 55 2
82 75 3
82 86 3
82 90 4
82 92 3
83 4 0
83 13 2
83 14 0
83 32 0
83 37 3
83 48 2
83 55 3
83 66 1
83 68 3
83 74 4
84 22 4
84 27 0
84 51 0
84 63 0
84 71 1
84 78 2
84 89 4
84 92 2
84 95 1
84 97 3
85 11 0
85 20 4
85 23 0
85 32 0
85 37 0
85 47 4
85 51 4
85 58 4
85 61 0
85 63 0
86 17 3
86 26 4
86 50 4
86 54 0
86 56 0
86 67 2
86 79 0
86 82 4
86 83 2
86 99 4
87 0 4
87 2 4
87 17 3
87 31 2
87 41 4
87 46 4
87 79 0
87 84 4
87 94 0
87 96 4
88 15 3
88 31 2
88 39 4
88 57 4
88 60 0
88 76 2
88 83 3
88 87 2
88 89 0
88 96 4
89 0 1
89 11 3
89 17 3
89 19 1
89 36 2
89 48 2
89 56 2
89 58 1
89 80 3
89 85 0
90 19 0
90 36 1
90 59 4
90 64 0
90 74 2
90 77 2
90 91 3
90 94 0
90 95 0
90 96 4
91 18 1
91 30 0
91 41 4
91 45 3
91 48 4
91 55 3
91 68 3
91 73 0
91 88 3
91 94 2
92 10 0
92 17 1
92 19 3
92 20 2
92 32 0
92 46 0
92 52 4
92 66 0
92 78 2
92 81 3
93 4 2
93 8 1
93 25 3
93 26 4
93 30 3
93 42 3
93 53 1
93 66 2
93 68 4
93 74 4
94 19 0
94 28 4
94 30 3
94 46 1
94 51 0
94 52 1
94 57 0
94 61 3
94 72 3
94 73 0
95 5 3
95 13 1
95 15 0
95 31 0
95 45 3
95 54 0
95 65 2
95 81 0
95 88 0
95 92 2
96 29 1
96 47 1
96 63 3
96 70 1
96 90 3
96 91 4
96 92 0
96 97 2
96 98 1
96 99 1
97 16 3
97 29 4
97 43 4
97 67 3
97 75 0
97 83 2
97 89 3
97 94 0
97 95 1
97 96 0
98 0 1
98 8 1
98 9 3
98 16 4
98 17 1
98 44 4
98 53 3
98 63 0
98 65 2
98 73 1
99 46 2
99 50 2
99 69 0
99 75 4
99 77 1
99 83 1
99 90 0
99 93 2
99 94 2
99 95 3
